; benchmark generated from python API
(set-info :status unknown)
(declare-fun cell_1_3 () Int)
(declare-fun cell_1_8 () Int)
(declare-fun cell_2_6 () Int)
(declare-fun cell_3_8 () Int)
(declare-fun cell_4_2 () Int)
(declare-fun cell_5_9 () Int)
(declare-fun cell_6_4 () Int)
(declare-fun cell_7_5 () Int)
(declare-fun cell_8_1 () Int)
(declare-fun cell_9_7 () Int)
(declare-fun cell_1_1 () Int)
(declare-fun cell_2_1 () Int)
(declare-fun cell_3_1 () Int)
(declare-fun cell_4_1 () Int)
(declare-fun cell_5_1 () Int)
(declare-fun cell_6_1 () Int)
(declare-fun cell_7_1 () Int)
(declare-fun cell_9_1 () Int)
(declare-fun cell_1_2 () Int)
(declare-fun cell_2_2 () Int)
(declare-fun cell_3_2 () Int)
(declare-fun cell_5_2 () Int)
(declare-fun cell_6_2 () Int)
(declare-fun cell_7_2 () Int)
(declare-fun cell_8_2 () Int)
(declare-fun cell_9_2 () Int)
(declare-fun cell_2_3 () Int)
(declare-fun cell_3_3 () Int)
(declare-fun cell_4_3 () Int)
(declare-fun cell_5_3 () Int)
(declare-fun cell_6_3 () Int)
(declare-fun cell_7_3 () Int)
(declare-fun cell_8_3 () Int)
(declare-fun cell_9_3 () Int)
(declare-fun cell_1_4 () Int)
(declare-fun cell_2_4 () Int)
(declare-fun cell_3_4 () Int)
(declare-fun cell_4_4 () Int)
(declare-fun cell_5_4 () Int)
(declare-fun cell_7_4 () Int)
(declare-fun cell_8_4 () Int)
(declare-fun cell_9_4 () Int)
(declare-fun cell_1_5 () Int)
(declare-fun cell_2_5 () Int)
(declare-fun cell_3_5 () Int)
(declare-fun cell_4_5 () Int)
(declare-fun cell_5_5 () Int)
(declare-fun cell_6_5 () Int)
(declare-fun cell_8_5 () Int)
(declare-fun cell_9_5 () Int)
(declare-fun cell_1_6 () Int)
(declare-fun cell_3_6 () Int)
(declare-fun cell_4_6 () Int)
(declare-fun cell_5_6 () Int)
(declare-fun cell_6_6 () Int)
(declare-fun cell_7_6 () Int)
(declare-fun cell_8_6 () Int)
(declare-fun cell_9_6 () Int)
(declare-fun cell_1_7 () Int)
(declare-fun cell_2_7 () Int)
(declare-fun cell_3_7 () Int)
(declare-fun cell_4_7 () Int)
(declare-fun cell_5_7 () Int)
(declare-fun cell_6_7 () Int)
(declare-fun cell_7_7 () Int)
(declare-fun cell_8_7 () Int)
(declare-fun cell_2_8 () Int)
(declare-fun cell_4_8 () Int)
(declare-fun cell_5_8 () Int)
(declare-fun cell_6_8 () Int)
(declare-fun cell_7_8 () Int)
(declare-fun cell_8_8 () Int)
(declare-fun cell_9_8 () Int)
(declare-fun cell_1_9 () Int)
(declare-fun cell_2_9 () Int)
(declare-fun cell_3_9 () Int)
(declare-fun cell_4_9 () Int)
(declare-fun cell_6_9 () Int)
(declare-fun cell_7_9 () Int)
(declare-fun cell_8_9 () Int)
(declare-fun cell_9_9 () Int)
(assert
 (= cell_1_3 1))
(assert
 (= cell_1_8 2))
(assert
 (= cell_2_6 1))
(assert
 (= cell_3_8 1))
(assert
 (= cell_4_2 1))
(assert
 (= cell_5_9 1))
(assert
 (= cell_6_4 1))
(assert
 (= cell_7_5 1))
(assert
 (= cell_8_1 1))
(assert
 (= cell_9_7 1))
(assert
 (let (($x2271 (= cell_1_1 9)))
 (let (($x8096 (= cell_1_1 8)))
 (let (($x2075 (= cell_1_1 7)))
 (let (($x4634 (= cell_1_1 6)))
 (let (($x9904 (= cell_1_1 5)))
 (let (($x8672 (= cell_1_1 4)))
 (let (($x6045 (= cell_1_1 3)))
 (let (($x514 (= cell_1_1 2)))
 (let (($x4427 (= cell_1_1 1)))
 (or $x4427 $x514 $x6045 $x8672 $x9904 $x4634 $x2075 $x8096 $x2271)))))))))))
(assert
 (let (($x8125 (= cell_2_1 9)))
 (let (($x1205 (= cell_2_1 8)))
 (let (($x1522 (= cell_2_1 7)))
 (let (($x3528 (= cell_2_1 6)))
 (let (($x4603 (= cell_2_1 5)))
 (let (($x8638 (= cell_2_1 4)))
 (let (($x7243 (= cell_2_1 3)))
 (let (($x5484 (= cell_2_1 2)))
 (let (($x499 (= cell_2_1 1)))
 (or $x499 $x5484 $x7243 $x8638 $x4603 $x3528 $x1522 $x1205 $x8125)))))))))))
(assert
 (let (($x2203 (= cell_3_1 9)))
 (let (($x7641 (= cell_3_1 8)))
 (let (($x6391 (= cell_3_1 7)))
 (let (($x7727 (= cell_3_1 6)))
 (let (($x5295 (= cell_3_1 5)))
 (let (($x6751 (= cell_3_1 4)))
 (let (($x8169 (= cell_3_1 3)))
 (let (($x3884 (= cell_3_1 2)))
 (let (($x3137 (= cell_3_1 1)))
 (or $x3137 $x3884 $x8169 $x6751 $x5295 $x7727 $x6391 $x7641 $x2203)))))))))))
(assert
 (let (($x2602 (= cell_4_1 9)))
 (let (($x5456 (= cell_4_1 8)))
 (let (($x2531 (= cell_4_1 7)))
 (let (($x4510 (= cell_4_1 6)))
 (let (($x920 (= cell_4_1 5)))
 (let (($x2553 (= cell_4_1 4)))
 (let (($x2462 (= cell_4_1 3)))
 (let (($x1196 (= cell_4_1 2)))
 (let (($x2840 (= cell_4_1 1)))
 (or $x2840 $x1196 $x2462 $x2553 $x920 $x4510 $x2531 $x5456 $x2602)))))))))))
(assert
 (let (($x433 (= cell_5_1 9)))
 (let (($x6080 (= cell_5_1 8)))
 (let (($x10012 (= cell_5_1 7)))
 (let (($x5424 (= cell_5_1 6)))
 (let (($x4270 (= cell_5_1 5)))
 (let (($x5430 (= cell_5_1 4)))
 (let (($x9304 (= cell_5_1 3)))
 (let (($x3393 (= cell_5_1 2)))
 (let (($x1517 (= cell_5_1 1)))
 (or $x1517 $x3393 $x9304 $x5430 $x4270 $x5424 $x10012 $x6080 $x433)))))))))))
(assert
 (let (($x3824 (= cell_6_1 9)))
 (let (($x1901 (= cell_6_1 8)))
 (let (($x7379 (= cell_6_1 7)))
 (let (($x4486 (= cell_6_1 6)))
 (let (($x10006 (= cell_6_1 5)))
 (let (($x2272 (= cell_6_1 4)))
 (let (($x7309 (= cell_6_1 3)))
 (let (($x2171 (= cell_6_1 2)))
 (let (($x9693 (= cell_6_1 1)))
 (or $x9693 $x2171 $x7309 $x2272 $x10006 $x4486 $x7379 $x1901 $x3824)))))))))))
(assert
 (let (($x833 (= cell_7_1 9)))
 (let (($x7554 (= cell_7_1 8)))
 (let (($x6544 (= cell_7_1 7)))
 (let (($x466 (= cell_7_1 6)))
 (let (($x5813 (= cell_7_1 5)))
 (let (($x6533 (= cell_7_1 4)))
 (let (($x6051 (= cell_7_1 3)))
 (let (($x2810 (= cell_7_1 2)))
 (let (($x8644 (= cell_7_1 1)))
 (or $x8644 $x2810 $x6051 $x6533 $x5813 $x466 $x6544 $x7554 $x833)))))))))))
(assert
 (let (($x5506 (= cell_8_1 1)))
 (or $x5506 (= cell_8_1 2) (= cell_8_1 3) (= cell_8_1 4) (= cell_8_1 5) (= cell_8_1 6) (= cell_8_1 7) (= cell_8_1 8) (= cell_8_1 9))))
(assert
 (let (($x3620 (= cell_9_1 9)))
 (let (($x1468 (= cell_9_1 8)))
 (let (($x1097 (= cell_9_1 7)))
 (let (($x980 (= cell_9_1 6)))
 (let (($x8415 (= cell_9_1 5)))
 (let (($x6007 (= cell_9_1 4)))
 (let (($x9195 (= cell_9_1 3)))
 (let (($x3520 (= cell_9_1 2)))
 (let (($x758 (= cell_9_1 1)))
 (or $x758 $x3520 $x9195 $x6007 $x8415 $x980 $x1097 $x1468 $x3620)))))))))))
(assert
 (let (($x7783 (= cell_1_2 9)))
 (let (($x2618 (= cell_1_2 8)))
 (let (($x3795 (= cell_1_2 7)))
 (let (($x4586 (= cell_1_2 6)))
 (let (($x1624 (= cell_1_2 5)))
 (let (($x7500 (= cell_1_2 4)))
 (let (($x3900 (= cell_1_2 3)))
 (let (($x2088 (= cell_1_2 2)))
 (let (($x3770 (= cell_1_2 1)))
 (or $x3770 $x2088 $x3900 $x7500 $x1624 $x4586 $x3795 $x2618 $x7783)))))))))))
(assert
 (let (($x7003 (= cell_2_2 9)))
 (let (($x5490 (= cell_2_2 8)))
 (let (($x4106 (= cell_2_2 7)))
 (let (($x6497 (= cell_2_2 6)))
 (let (($x2561 (= cell_2_2 5)))
 (let (($x643 (= cell_2_2 4)))
 (let (($x727 (= cell_2_2 3)))
 (let (($x702 (= cell_2_2 2)))
 (let (($x5311 (= cell_2_2 1)))
 (or $x5311 $x702 $x727 $x643 $x2561 $x6497 $x4106 $x5490 $x7003)))))))))))
(assert
 (let (($x8208 (= cell_3_2 9)))
 (let (($x6517 (= cell_3_2 8)))
 (let (($x2638 (= cell_3_2 7)))
 (let (($x8136 (= cell_3_2 6)))
 (let (($x3560 (= cell_3_2 5)))
 (let (($x2878 (= cell_3_2 4)))
 (let (($x2590 (= cell_3_2 3)))
 (let (($x4537 (= cell_3_2 2)))
 (let (($x3144 (= cell_3_2 1)))
 (or $x3144 $x4537 $x2590 $x2878 $x3560 $x8136 $x2638 $x6517 $x8208)))))))))))
(assert
 (let (($x1875 (= cell_4_2 1)))
 (or $x1875 (= cell_4_2 2) (= cell_4_2 3) (= cell_4_2 4) (= cell_4_2 5) (= cell_4_2 6) (= cell_4_2 7) (= cell_4_2 8) (= cell_4_2 9))))
(assert
 (let (($x257 (= cell_5_2 9)))
 (let (($x2057 (= cell_5_2 8)))
 (let (($x3917 (= cell_5_2 7)))
 (let (($x6560 (= cell_5_2 6)))
 (let (($x6700 (= cell_5_2 5)))
 (let (($x2368 (= cell_5_2 4)))
 (let (($x7856 (= cell_5_2 3)))
 (let (($x3459 (= cell_5_2 2)))
 (let (($x2681 (= cell_5_2 1)))
 (or $x2681 $x3459 $x7856 $x2368 $x6700 $x6560 $x3917 $x2057 $x257)))))))))))
(assert
 (let (($x8336 (= cell_6_2 9)))
 (let (($x4672 (= cell_6_2 8)))
 (let (($x7268 (= cell_6_2 7)))
 (let (($x4928 (= cell_6_2 6)))
 (let (($x7289 (= cell_6_2 5)))
 (let (($x1194 (= cell_6_2 4)))
 (let (($x2210 (= cell_6_2 3)))
 (let (($x3477 (= cell_6_2 2)))
 (let (($x6273 (= cell_6_2 1)))
 (or $x6273 $x3477 $x2210 $x1194 $x7289 $x4928 $x7268 $x4672 $x8336)))))))))))
(assert
 (let (($x1312 (= cell_7_2 9)))
 (let (($x3260 (= cell_7_2 8)))
 (let (($x7027 (= cell_7_2 7)))
 (let (($x5928 (= cell_7_2 6)))
 (let (($x3912 (= cell_7_2 5)))
 (let (($x2513 (= cell_7_2 4)))
 (let (($x4579 (= cell_7_2 3)))
 (let (($x7025 (= cell_7_2 2)))
 (let (($x5450 (= cell_7_2 1)))
 (or $x5450 $x7025 $x4579 $x2513 $x3912 $x5928 $x7027 $x3260 $x1312)))))))))))
(assert
 (let (($x1070 (= cell_8_2 1)))
 (or $x1070 (= cell_8_2 2) (= cell_8_2 3) (= cell_8_2 4) (= cell_8_2 5) (= cell_8_2 6) (= cell_8_2 7) (= cell_8_2 8) (= cell_8_2 9))))
(assert
 (let (($x8343 (= cell_9_2 9)))
 (let (($x2812 (= cell_9_2 8)))
 (let (($x2745 (= cell_9_2 7)))
 (let (($x7624 (= cell_9_2 6)))
 (let (($x1061 (= cell_9_2 5)))
 (let (($x1283 (= cell_9_2 4)))
 (let (($x661 (= cell_9_2 3)))
 (let (($x762 (= cell_9_2 2)))
 (let (($x9476 (= cell_9_2 1)))
 (or $x9476 $x762 $x661 $x1283 $x1061 $x7624 $x2745 $x2812 $x8343)))))))))))
(assert
 (let (($x6467 (= cell_1_3 1)))
 (or $x6467 (= cell_1_3 2) (= cell_1_3 3) (= cell_1_3 4) (= cell_1_3 5) (= cell_1_3 6) (= cell_1_3 7) (= cell_1_3 8) (= cell_1_3 9))))
(assert
 (let (($x921 (= cell_2_3 9)))
 (let (($x4454 (= cell_2_3 8)))
 (let (($x6498 (= cell_2_3 7)))
 (let (($x9355 (= cell_2_3 6)))
 (let (($x1043 (= cell_2_3 5)))
 (let (($x3715 (= cell_2_3 4)))
 (let (($x1922 (= cell_2_3 3)))
 (let (($x2713 (= cell_2_3 2)))
 (let (($x2232 (= cell_2_3 1)))
 (or $x2232 $x2713 $x1922 $x3715 $x1043 $x9355 $x6498 $x4454 $x921)))))))))))
(assert
 (let (($x1149 (= cell_3_3 9)))
 (let (($x3412 (= cell_3_3 8)))
 (let (($x5133 (= cell_3_3 7)))
 (let (($x8781 (= cell_3_3 6)))
 (let (($x539 (= cell_3_3 5)))
 (let (($x6735 (= cell_3_3 4)))
 (let (($x8931 (= cell_3_3 3)))
 (let (($x3844 (= cell_3_3 2)))
 (let (($x9222 (= cell_3_3 1)))
 (or $x9222 $x3844 $x8931 $x6735 $x539 $x8781 $x5133 $x3412 $x1149)))))))))))
(assert
 (let (($x2780 (= cell_4_3 1)))
 (or $x2780 (= cell_4_3 2) (= cell_4_3 3) (= cell_4_3 4) (= cell_4_3 5) (= cell_4_3 6) (= cell_4_3 7) (= cell_4_3 8) (= cell_4_3 9))))
(assert
 (let (($x7739 (= cell_5_3 9)))
 (let (($x7897 (= cell_5_3 8)))
 (let (($x7793 (= cell_5_3 7)))
 (let (($x8397 (= cell_5_3 6)))
 (let (($x4077 (= cell_5_3 5)))
 (let (($x2375 (= cell_5_3 4)))
 (let (($x6856 (= cell_5_3 3)))
 (let (($x2823 (= cell_5_3 2)))
 (let (($x3231 (= cell_5_3 1)))
 (or $x3231 $x2823 $x6856 $x2375 $x4077 $x8397 $x7793 $x7897 $x7739)))))))))))
(assert
 (let (($x2920 (= cell_6_3 9)))
 (let (($x497 (= cell_6_3 8)))
 (let (($x3430 (= cell_6_3 7)))
 (let (($x6280 (= cell_6_3 6)))
 (let (($x1844 (= cell_6_3 5)))
 (let (($x3143 (= cell_6_3 4)))
 (let (($x3147 (= cell_6_3 3)))
 (let (($x7811 (= cell_6_3 2)))
 (let (($x8020 (= cell_6_3 1)))
 (or $x8020 $x7811 $x3147 $x3143 $x1844 $x6280 $x3430 $x497 $x2920)))))))))))
(assert
 (let (($x9953 (= cell_7_3 9)))
 (let (($x1273 (= cell_7_3 8)))
 (let (($x780 (= cell_7_3 7)))
 (let (($x9276 (= cell_7_3 6)))
 (let (($x10102 (= cell_7_3 5)))
 (let (($x7753 (= cell_7_3 4)))
 (let (($x3652 (= cell_7_3 3)))
 (let (($x2629 (= cell_7_3 2)))
 (let (($x9321 (= cell_7_3 1)))
 (or $x9321 $x2629 $x3652 $x7753 $x10102 $x9276 $x780 $x1273 $x9953)))))))))))
(assert
 (let (($x3250 (= cell_8_3 1)))
 (or $x3250 (= cell_8_3 2) (= cell_8_3 3) (= cell_8_3 4) (= cell_8_3 5) (= cell_8_3 6) (= cell_8_3 7) (= cell_8_3 8) (= cell_8_3 9))))
(assert
 (let (($x9172 (= cell_9_3 9)))
 (let (($x1874 (= cell_9_3 8)))
 (let (($x6138 (= cell_9_3 7)))
 (let (($x8042 (= cell_9_3 6)))
 (let (($x7042 (= cell_9_3 5)))
 (let (($x1159 (= cell_9_3 4)))
 (let (($x4758 (= cell_9_3 3)))
 (let (($x3549 (= cell_9_3 2)))
 (let (($x2784 (= cell_9_3 1)))
 (or $x2784 $x3549 $x4758 $x1159 $x7042 $x8042 $x6138 $x1874 $x9172)))))))))))
(assert
 (let (($x6878 (= cell_1_4 9)))
 (let (($x1952 (= cell_1_4 8)))
 (let (($x4483 (= cell_1_4 7)))
 (let (($x9498 (= cell_1_4 6)))
 (let (($x5438 (= cell_1_4 5)))
 (let (($x1512 (= cell_1_4 4)))
 (let (($x9591 (= cell_1_4 3)))
 (let (($x891 (= cell_1_4 2)))
 (let (($x6369 (= cell_1_4 1)))
 (or $x6369 $x891 $x9591 $x1512 $x5438 $x9498 $x4483 $x1952 $x6878)))))))))))
(assert
 (let (($x8797 (= cell_2_4 9)))
 (let (($x9841 (= cell_2_4 8)))
 (let (($x6946 (= cell_2_4 7)))
 (let (($x6631 (= cell_2_4 6)))
 (let (($x7360 (= cell_2_4 5)))
 (let (($x8418 (= cell_2_4 4)))
 (let (($x5261 (= cell_2_4 3)))
 (let (($x163 (= cell_2_4 2)))
 (let (($x5234 (= cell_2_4 1)))
 (or $x5234 $x163 $x5261 $x8418 $x7360 $x6631 $x6946 $x9841 $x8797)))))))))))
(assert
 (let (($x7511 (= cell_3_4 9)))
 (let (($x1772 (= cell_3_4 8)))
 (let (($x1641 (= cell_3_4 7)))
 (let (($x3451 (= cell_3_4 6)))
 (let (($x5826 (= cell_3_4 5)))
 (let (($x9644 (= cell_3_4 4)))
 (let (($x7721 (= cell_3_4 3)))
 (let (($x260 (= cell_3_4 2)))
 (let (($x8685 (= cell_3_4 1)))
 (or $x8685 $x260 $x7721 $x9644 $x5826 $x3451 $x1641 $x1772 $x7511)))))))))))
(assert
 (let (($x2575 (= cell_4_4 9)))
 (let (($x978 (= cell_4_4 8)))
 (let (($x4589 (= cell_4_4 7)))
 (let (($x7663 (= cell_4_4 6)))
 (let (($x9190 (= cell_4_4 5)))
 (let (($x8563 (= cell_4_4 4)))
 (let (($x6041 (= cell_4_4 3)))
 (let (($x8903 (= cell_4_4 2)))
 (let (($x9299 (= cell_4_4 1)))
 (or $x9299 $x8903 $x6041 $x8563 $x9190 $x7663 $x4589 $x978 $x2575)))))))))))
(assert
 (let (($x1484 (= cell_5_4 9)))
 (let (($x195 (= cell_5_4 8)))
 (let (($x2353 (= cell_5_4 7)))
 (let (($x3310 (= cell_5_4 6)))
 (let (($x9933 (= cell_5_4 5)))
 (let (($x9415 (= cell_5_4 4)))
 (let (($x7124 (= cell_5_4 3)))
 (let (($x6113 (= cell_5_4 2)))
 (let (($x4417 (= cell_5_4 1)))
 (or $x4417 $x6113 $x7124 $x9415 $x9933 $x3310 $x2353 $x195 $x1484)))))))))))
(assert
 (let (($x4159 (= cell_6_4 1)))
 (or $x4159 (= cell_6_4 2) (= cell_6_4 3) (= cell_6_4 4) (= cell_6_4 5) (= cell_6_4 6) (= cell_6_4 7) (= cell_6_4 8) (= cell_6_4 9))))
(assert
 (let (($x3556 (= cell_7_4 9)))
 (let (($x3722 (= cell_7_4 8)))
 (let (($x6302 (= cell_7_4 7)))
 (let (($x4147 (= cell_7_4 6)))
 (let (($x7169 (= cell_7_4 5)))
 (let (($x9942 (= cell_7_4 4)))
 (let (($x6404 (= cell_7_4 3)))
 (let (($x1109 (= cell_7_4 2)))
 (let (($x7207 (= cell_7_4 1)))
 (or $x7207 $x1109 $x6404 $x9942 $x7169 $x4147 $x6302 $x3722 $x3556)))))))))))
(assert
 (let (($x4496 (= cell_8_4 1)))
 (or $x4496 (= cell_8_4 2) (= cell_8_4 3) (= cell_8_4 4) (= cell_8_4 5) (= cell_8_4 6) (= cell_8_4 7) (= cell_8_4 8) (= cell_8_4 9))))
(assert
 (let (($x6037 (= cell_9_4 9)))
 (let (($x1935 (= cell_9_4 8)))
 (let (($x6266 (= cell_9_4 7)))
 (let (($x9837 (= cell_9_4 6)))
 (let (($x9179 (= cell_9_4 5)))
 (let (($x7581 (= cell_9_4 4)))
 (let (($x7052 (= cell_9_4 3)))
 (let (($x4813 (= cell_9_4 2)))
 (let (($x3864 (= cell_9_4 1)))
 (or $x3864 $x4813 $x7052 $x7581 $x9179 $x9837 $x6266 $x1935 $x6037)))))))))))
(assert
 (let (($x5507 (= cell_1_5 9)))
 (let (($x7820 (= cell_1_5 8)))
 (let (($x9581 (= cell_1_5 7)))
 (let (($x9612 (= cell_1_5 6)))
 (let (($x605 (= cell_1_5 5)))
 (let (($x944 (= cell_1_5 4)))
 (let (($x7799 (= cell_1_5 3)))
 (let (($x1368 (= cell_1_5 2)))
 (let (($x1299 (= cell_1_5 1)))
 (or $x1299 $x1368 $x7799 $x944 $x605 $x9612 $x9581 $x7820 $x5507)))))))))))
(assert
 (let (($x3848 (= cell_2_5 9)))
 (let (($x8692 (= cell_2_5 8)))
 (let (($x5874 (= cell_2_5 7)))
 (let (($x5981 (= cell_2_5 6)))
 (let (($x6296 (= cell_2_5 5)))
 (let (($x6212 (= cell_2_5 4)))
 (let (($x6421 (= cell_2_5 3)))
 (let (($x9097 (= cell_2_5 2)))
 (let (($x4595 (= cell_2_5 1)))
 (or $x4595 $x9097 $x6421 $x6212 $x6296 $x5981 $x5874 $x8692 $x3848)))))))))))
(assert
 (let (($x2504 (= cell_3_5 9)))
 (let (($x2005 (= cell_3_5 8)))
 (let (($x6542 (= cell_3_5 7)))
 (let (($x9965 (= cell_3_5 6)))
 (let (($x9019 (= cell_3_5 5)))
 (let (($x2927 (= cell_3_5 4)))
 (let (($x3351 (= cell_3_5 3)))
 (let (($x5678 (= cell_3_5 2)))
 (let (($x8457 (= cell_3_5 1)))
 (or $x8457 $x5678 $x3351 $x2927 $x9019 $x9965 $x6542 $x2005 $x2504)))))))))))
(assert
 (let (($x9022 (= cell_4_5 9)))
 (let (($x2181 (= cell_4_5 8)))
 (let (($x12 (= cell_4_5 7)))
 (let (($x6698 (= cell_4_5 6)))
 (let (($x2280 (= cell_4_5 5)))
 (let (($x7519 (= cell_4_5 4)))
 (let (($x8379 (= cell_4_5 3)))
 (let (($x4320 (= cell_4_5 2)))
 (let (($x7948 (= cell_4_5 1)))
 (or $x7948 $x4320 $x8379 $x7519 $x2280 $x6698 $x12 $x2181 $x9022)))))))))))
(assert
 (let (($x5276 (= cell_5_5 9)))
 (let (($x3010 (= cell_5_5 8)))
 (let (($x5766 (= cell_5_5 7)))
 (let (($x8108 (= cell_5_5 6)))
 (let (($x2274 (= cell_5_5 5)))
 (let (($x1230 (= cell_5_5 4)))
 (let (($x5497 (= cell_5_5 3)))
 (let (($x1664 (= cell_5_5 2)))
 (let (($x3597 (= cell_5_5 1)))
 (or $x3597 $x1664 $x5497 $x1230 $x2274 $x8108 $x5766 $x3010 $x5276)))))))))))
(assert
 (let (($x2160 (= cell_6_5 9)))
 (let (($x1805 (= cell_6_5 8)))
 (let (($x2314 (= cell_6_5 7)))
 (let (($x7296 (= cell_6_5 6)))
 (let (($x7217 (= cell_6_5 5)))
 (let (($x3398 (= cell_6_5 4)))
 (let (($x8598 (= cell_6_5 3)))
 (let (($x3325 (= cell_6_5 2)))
 (let (($x2250 (= cell_6_5 1)))
 (or $x2250 $x3325 $x8598 $x3398 $x7217 $x7296 $x2314 $x1805 $x2160)))))))))))
(assert
 (let (($x9378 (= cell_7_5 1)))
 (or $x9378 (= cell_7_5 2) (= cell_7_5 3) (= cell_7_5 4) (= cell_7_5 5) (= cell_7_5 6) (= cell_7_5 7) (= cell_7_5 8) (= cell_7_5 9))))
(assert
 (let (($x10191 (= cell_8_5 1)))
 (or $x10191 (= cell_8_5 2) (= cell_8_5 3) (= cell_8_5 4) (= cell_8_5 5) (= cell_8_5 6) (= cell_8_5 7) (= cell_8_5 8) (= cell_8_5 9))))
(assert
 (let (($x3360 (= cell_9_5 9)))
 (let (($x8884 (= cell_9_5 8)))
 (let (($x788 (= cell_9_5 7)))
 (let (($x851 (= cell_9_5 6)))
 (let (($x9496 (= cell_9_5 5)))
 (let (($x9048 (= cell_9_5 4)))
 (let (($x39 (= cell_9_5 3)))
 (let (($x10063 (= cell_9_5 2)))
 (let (($x3962 (= cell_9_5 1)))
 (or $x3962 $x10063 $x39 $x9048 $x9496 $x851 $x788 $x8884 $x3360)))))))))))
(assert
 (let (($x1174 (= cell_1_6 9)))
 (let (($x607 (= cell_1_6 8)))
 (let (($x6024 (= cell_1_6 7)))
 (let (($x2157 (= cell_1_6 6)))
 (let (($x9132 (= cell_1_6 5)))
 (let (($x3564 (= cell_1_6 4)))
 (let (($x3295 (= cell_1_6 3)))
 (let (($x4348 (= cell_1_6 2)))
 (let (($x1298 (= cell_1_6 1)))
 (or $x1298 $x4348 $x3295 $x3564 $x9132 $x2157 $x6024 $x607 $x1174)))))))))))
(assert
 (let (($x552 (= cell_2_6 1)))
 (or $x552 (= cell_2_6 2) (= cell_2_6 3) (= cell_2_6 4) (= cell_2_6 5) (= cell_2_6 6) (= cell_2_6 7) (= cell_2_6 8) (= cell_2_6 9))))
(assert
 (let (($x3836 (= cell_3_6 9)))
 (let (($x4040 (= cell_3_6 8)))
 (let (($x2393 (= cell_3_6 7)))
 (let (($x9529 (= cell_3_6 6)))
 (let (($x8419 (= cell_3_6 5)))
 (let (($x9145 (= cell_3_6 4)))
 (let (($x8144 (= cell_3_6 3)))
 (let (($x335 (= cell_3_6 2)))
 (let (($x6306 (= cell_3_6 1)))
 (or $x6306 $x335 $x8144 $x9145 $x8419 $x9529 $x2393 $x4040 $x3836)))))))))))
(assert
 (let (($x9103 (= cell_4_6 9)))
 (let (($x708 (= cell_4_6 8)))
 (let (($x1748 (= cell_4_6 7)))
 (let (($x655 (= cell_4_6 6)))
 (let (($x7613 (= cell_4_6 5)))
 (let (($x3695 (= cell_4_6 4)))
 (let (($x9244 (= cell_4_6 3)))
 (let (($x2226 (= cell_4_6 2)))
 (let (($x3314 (= cell_4_6 1)))
 (or $x3314 $x2226 $x9244 $x3695 $x7613 $x655 $x1748 $x708 $x9103)))))))))))
(assert
 (let (($x4180 (= cell_5_6 9)))
 (let (($x8063 (= cell_5_6 8)))
 (let (($x7167 (= cell_5_6 7)))
 (let (($x9460 (= cell_5_6 6)))
 (let (($x360 (= cell_5_6 5)))
 (let (($x7151 (= cell_5_6 4)))
 (let (($x6048 (= cell_5_6 3)))
 (let (($x7012 (= cell_5_6 2)))
 (let (($x5334 (= cell_5_6 1)))
 (or $x5334 $x7012 $x6048 $x7151 $x360 $x9460 $x7167 $x8063 $x4180)))))))))))
(assert
 (let (($x778 (= cell_6_6 1)))
 (or $x778 (= cell_6_6 2) (= cell_6_6 3) (= cell_6_6 4) (= cell_6_6 5) (= cell_6_6 6) (= cell_6_6 7) (= cell_6_6 8) (= cell_6_6 9))))
(assert
 (let (($x3197 (= cell_7_6 1)))
 (or $x3197 (= cell_7_6 2) (= cell_7_6 3) (= cell_7_6 4) (= cell_7_6 5) (= cell_7_6 6) (= cell_7_6 7) (= cell_7_6 8) (= cell_7_6 9))))
(assert
 (let (($x5973 (= cell_8_6 1)))
 (or $x5973 (= cell_8_6 2) (= cell_8_6 3) (= cell_8_6 4) (= cell_8_6 5) (= cell_8_6 6) (= cell_8_6 7) (= cell_8_6 8) (= cell_8_6 9))))
(assert
 (let (($x8430 (= cell_9_6 9)))
 (let (($x5303 (= cell_9_6 8)))
 (let (($x9634 (= cell_9_6 7)))
 (let (($x6204 (= cell_9_6 6)))
 (let (($x5475 (= cell_9_6 5)))
 (let (($x2197 (= cell_9_6 4)))
 (let (($x773 (= cell_9_6 3)))
 (let (($x2170 (= cell_9_6 2)))
 (let (($x130 (= cell_9_6 1)))
 (or $x130 $x2170 $x773 $x2197 $x5475 $x6204 $x9634 $x5303 $x8430)))))))))))
(assert
 (let (($x8385 (= cell_1_7 9)))
 (let (($x5054 (= cell_1_7 8)))
 (let (($x5479 (= cell_1_7 7)))
 (let (($x5788 (= cell_1_7 6)))
 (let (($x1437 (= cell_1_7 5)))
 (let (($x5801 (= cell_1_7 4)))
 (let (($x1731 (= cell_1_7 3)))
 (let (($x3592 (= cell_1_7 2)))
 (let (($x4428 (= cell_1_7 1)))
 (or $x4428 $x3592 $x1731 $x5801 $x1437 $x5788 $x5479 $x5054 $x8385)))))))))))
(assert
 (let (($x4706 (= cell_2_7 9)))
 (let (($x2759 (= cell_2_7 8)))
 (let (($x5615 (= cell_2_7 7)))
 (let (($x304 (= cell_2_7 6)))
 (let (($x4431 (= cell_2_7 5)))
 (let (($x2254 (= cell_2_7 4)))
 (let (($x7610 (= cell_2_7 3)))
 (let (($x6160 (= cell_2_7 2)))
 (let (($x5918 (= cell_2_7 1)))
 (or $x5918 $x6160 $x7610 $x2254 $x4431 $x304 $x5615 $x2759 $x4706)))))))))))
(assert
 (let (($x5371 (= cell_3_7 9)))
 (let (($x6414 (= cell_3_7 8)))
 (let (($x5914 (= cell_3_7 7)))
 (let (($x1373 (= cell_3_7 6)))
 (let (($x9271 (= cell_3_7 5)))
 (let (($x7405 (= cell_3_7 4)))
 (let (($x6129 (= cell_3_7 3)))
 (let (($x5361 (= cell_3_7 2)))
 (let (($x7914 (= cell_3_7 1)))
 (or $x7914 $x5361 $x6129 $x7405 $x9271 $x1373 $x5914 $x6414 $x5371)))))))))))
(assert
 (let (($x2431 (= cell_4_7 9)))
 (let (($x8777 (= cell_4_7 8)))
 (let (($x9956 (= cell_4_7 7)))
 (let (($x6162 (= cell_4_7 6)))
 (let (($x5352 (= cell_4_7 5)))
 (let (($x5101 (= cell_4_7 4)))
 (let (($x6995 (= cell_4_7 3)))
 (let (($x1518 (= cell_4_7 2)))
 (let (($x931 (= cell_4_7 1)))
 (or $x931 $x1518 $x6995 $x5101 $x5352 $x6162 $x9956 $x8777 $x2431)))))))))))
(assert
 (let (($x6530 (= cell_5_7 9)))
 (let (($x7488 (= cell_5_7 8)))
 (let (($x4376 (= cell_5_7 7)))
 (let (($x10073 (= cell_5_7 6)))
 (let (($x5940 (= cell_5_7 5)))
 (let (($x9455 (= cell_5_7 4)))
 (let (($x4895 (= cell_5_7 3)))
 (let (($x6231 (= cell_5_7 2)))
 (let (($x8897 (= cell_5_7 1)))
 (or $x8897 $x6231 $x4895 $x9455 $x5940 $x10073 $x4376 $x7488 $x6530)))))))))))
(assert
 (let (($x7077 (= cell_6_7 9)))
 (let (($x9471 (= cell_6_7 8)))
 (let (($x4269 (= cell_6_7 7)))
 (let (($x4143 (= cell_6_7 6)))
 (let (($x9100 (= cell_6_7 5)))
 (let (($x9797 (= cell_6_7 4)))
 (let (($x6088 (= cell_6_7 3)))
 (let (($x4889 (= cell_6_7 2)))
 (let (($x9407 (= cell_6_7 1)))
 (or $x9407 $x4889 $x6088 $x9797 $x9100 $x4143 $x4269 $x9471 $x7077)))))))))))
(assert
 (let (($x7222 (= cell_7_7 9)))
 (let (($x9724 (= cell_7_7 8)))
 (let (($x3963 (= cell_7_7 7)))
 (let (($x5830 (= cell_7_7 6)))
 (let (($x6291 (= cell_7_7 5)))
 (let (($x1080 (= cell_7_7 4)))
 (let (($x396 (= cell_7_7 3)))
 (let (($x3517 (= cell_7_7 2)))
 (let (($x3169 (= cell_7_7 1)))
 (or $x3169 $x3517 $x396 $x1080 $x6291 $x5830 $x3963 $x9724 $x7222)))))))))))
(assert
 (let (($x1660 (= cell_8_7 9)))
 (let (($x6519 (= cell_8_7 8)))
 (let (($x7072 (= cell_8_7 7)))
 (let (($x4277 (= cell_8_7 6)))
 (let (($x7638 (= cell_8_7 5)))
 (let (($x3208 (= cell_8_7 4)))
 (let (($x1948 (= cell_8_7 3)))
 (let (($x4941 (= cell_8_7 2)))
 (let (($x3953 (= cell_8_7 1)))
 (or $x3953 $x4941 $x1948 $x3208 $x7638 $x4277 $x7072 $x6519 $x1660)))))))))))
(assert
 (let (($x297 (= cell_9_7 1)))
 (or $x297 (= cell_9_7 2) (= cell_9_7 3) (= cell_9_7 4) (= cell_9_7 5) (= cell_9_7 6) (= cell_9_7 7) (= cell_9_7 8) (= cell_9_7 9))))
(assert
 (let (($x102 (= cell_1_8 2)))
 (or (= cell_1_8 1) $x102 (= cell_1_8 3) (= cell_1_8 4) (= cell_1_8 5) (= cell_1_8 6) (= cell_1_8 7) (= cell_1_8 8) (= cell_1_8 9))))
(assert
 (let (($x1669 (= cell_2_8 9)))
 (let (($x9952 (= cell_2_8 8)))
 (let (($x2137 (= cell_2_8 7)))
 (let (($x9473 (= cell_2_8 6)))
 (let (($x9375 (= cell_2_8 5)))
 (let (($x8721 (= cell_2_8 4)))
 (let (($x2889 (= cell_2_8 3)))
 (let (($x7055 (= cell_2_8 2)))
 (let (($x9961 (= cell_2_8 1)))
 (or $x9961 $x7055 $x2889 $x8721 $x9375 $x9473 $x2137 $x9952 $x1669)))))))))))
(assert
 (let (($x7070 (= cell_3_8 1)))
 (or $x7070 (= cell_3_8 2) (= cell_3_8 3) (= cell_3_8 4) (= cell_3_8 5) (= cell_3_8 6) (= cell_3_8 7) (= cell_3_8 8) (= cell_3_8 9))))
(assert
 (let (($x472 (= cell_4_8 9)))
 (let (($x10229 (= cell_4_8 8)))
 (let (($x4215 (= cell_4_8 7)))
 (let (($x1047 (= cell_4_8 6)))
 (let (($x3336 (= cell_4_8 5)))
 (let (($x6654 (= cell_4_8 4)))
 (let (($x3658 (= cell_4_8 3)))
 (let (($x391 (= cell_4_8 2)))
 (let (($x7681 (= cell_4_8 1)))
 (or $x7681 $x391 $x3658 $x6654 $x3336 $x1047 $x4215 $x10229 $x472)))))))))))
(assert
 (let (($x8326 (= cell_5_8 9)))
 (let (($x3189 (= cell_5_8 8)))
 (let (($x8405 (= cell_5_8 7)))
 (let (($x4695 (= cell_5_8 6)))
 (let (($x9253 (= cell_5_8 5)))
 (let (($x1958 (= cell_5_8 4)))
 (let (($x4922 (= cell_5_8 3)))
 (let (($x7823 (= cell_5_8 2)))
 (let (($x7543 (= cell_5_8 1)))
 (or $x7543 $x7823 $x4922 $x1958 $x9253 $x4695 $x8405 $x3189 $x8326)))))))))))
(assert
 (let (($x729 (= cell_6_8 2)))
 (let (($x8309 (= cell_6_8 1)))
 (or $x8309 $x729 (= cell_6_8 3) (= cell_6_8 4) (= cell_6_8 5) (= cell_6_8 6) (= cell_6_8 7) (= cell_6_8 8) (= cell_6_8 9)))))
(assert
 (let (($x7639 (= cell_7_8 9)))
 (let (($x3779 (= cell_7_8 8)))
 (let (($x2489 (= cell_7_8 7)))
 (let (($x726 (= cell_7_8 6)))
 (let (($x5833 (= cell_7_8 5)))
 (let (($x9261 (= cell_7_8 4)))
 (let (($x10098 (= cell_7_8 3)))
 (let (($x4284 (= cell_7_8 2)))
 (let (($x385 (= cell_7_8 1)))
 (or $x385 $x4284 $x10098 $x9261 $x5833 $x726 $x2489 $x3779 $x7639)))))))))))
(assert
 (let (($x928 (= cell_8_8 9)))
 (let (($x5005 (= cell_8_8 8)))
 (let (($x7454 (= cell_8_8 7)))
 (let (($x2315 (= cell_8_8 6)))
 (let (($x8930 (= cell_8_8 5)))
 (let (($x6071 (= cell_8_8 4)))
 (let (($x8102 (= cell_8_8 3)))
 (let (($x2249 (= cell_8_8 2)))
 (let (($x3810 (= cell_8_8 1)))
 (or $x3810 $x2249 $x8102 $x6071 $x8930 $x2315 $x7454 $x5005 $x928)))))))))))
(assert
 (let (($x5093 (= cell_9_8 2)))
 (let (($x4250 (= cell_9_8 1)))
 (or $x4250 $x5093 (= cell_9_8 3) (= cell_9_8 4) (= cell_9_8 5) (= cell_9_8 6) (= cell_9_8 7) (= cell_9_8 8) (= cell_9_8 9)))))
(assert
 (let (($x6466 (= cell_1_9 9)))
 (let (($x6251 (= cell_1_9 8)))
 (let (($x1407 (= cell_1_9 7)))
 (let (($x9598 (= cell_1_9 6)))
 (let (($x1208 (= cell_1_9 5)))
 (let (($x6567 (= cell_1_9 4)))
 (let (($x6540 (= cell_1_9 3)))
 (let (($x7295 (= cell_1_9 2)))
 (let (($x9182 (= cell_1_9 1)))
 (or $x9182 $x7295 $x6540 $x6567 $x1208 $x9598 $x1407 $x6251 $x6466)))))))))))
(assert
 (let (($x9220 (= cell_2_9 9)))
 (let (($x2247 (= cell_2_9 8)))
 (let (($x79 (= cell_2_9 7)))
 (let (($x9743 (= cell_2_9 6)))
 (let (($x2298 (= cell_2_9 5)))
 (let (($x1361 (= cell_2_9 4)))
 (let (($x3831 (= cell_2_9 3)))
 (let (($x6712 (= cell_2_9 2)))
 (let (($x4300 (= cell_2_9 1)))
 (or $x4300 $x6712 $x3831 $x1361 $x2298 $x9743 $x79 $x2247 $x9220)))))))))))
(assert
 (let (($x8779 (= cell_3_9 9)))
 (let (($x6378 (= cell_3_9 8)))
 (let (($x9561 (= cell_3_9 7)))
 (let (($x7768 (= cell_3_9 6)))
 (let (($x5017 (= cell_3_9 5)))
 (let (($x1201 (= cell_3_9 4)))
 (let (($x9707 (= cell_3_9 3)))
 (let (($x2721 (= cell_3_9 2)))
 (let (($x5350 (= cell_3_9 1)))
 (or $x5350 $x2721 $x9707 $x1201 $x5017 $x7768 $x9561 $x6378 $x8779)))))))))))
(assert
 (let (($x1596 (= cell_4_9 9)))
 (let (($x5674 (= cell_4_9 8)))
 (let (($x7845 (= cell_4_9 7)))
 (let (($x9567 (= cell_4_9 6)))
 (let (($x7444 (= cell_4_9 5)))
 (let (($x6199 (= cell_4_9 4)))
 (let (($x8295 (= cell_4_9 3)))
 (let (($x9550 (= cell_4_9 2)))
 (let (($x1534 (= cell_4_9 1)))
 (or $x1534 $x9550 $x8295 $x6199 $x7444 $x9567 $x7845 $x5674 $x1596)))))))))))
(assert
 (let (($x5078 (= cell_5_9 1)))
 (or $x5078 (= cell_5_9 2) (= cell_5_9 3) (= cell_5_9 4) (= cell_5_9 5) (= cell_5_9 6) (= cell_5_9 7) (= cell_5_9 8) (= cell_5_9 9))))
(assert
 (let (($x8984 (= cell_6_9 1)))
 (or $x8984 (= cell_6_9 2) (= cell_6_9 3) (= cell_6_9 4) (= cell_6_9 5) (= cell_6_9 6) (= cell_6_9 7) (= cell_6_9 8) (= cell_6_9 9))))
(assert
 (let (($x3687 (= cell_7_9 9)))
 (let (($x8479 (= cell_7_9 8)))
 (let (($x8943 (= cell_7_9 7)))
 (let (($x8887 (= cell_7_9 6)))
 (let (($x2999 (= cell_7_9 5)))
 (let (($x9141 (= cell_7_9 4)))
 (let (($x10212 (= cell_7_9 3)))
 (let (($x7035 (= cell_7_9 2)))
 (let (($x4009 (= cell_7_9 1)))
 (or $x4009 $x7035 $x10212 $x9141 $x2999 $x8887 $x8943 $x8479 $x3687)))))))))))
(assert
 (let (($x45 (= cell_8_9 9)))
 (let (($x7410 (= cell_8_9 8)))
 (let (($x3991 (= cell_8_9 7)))
 (let (($x4775 (= cell_8_9 6)))
 (let (($x772 (= cell_8_9 5)))
 (let (($x1385 (= cell_8_9 4)))
 (let (($x8 (= cell_8_9 3)))
 (let (($x7492 (= cell_8_9 2)))
 (let (($x834 (= cell_8_9 1)))
 (or $x834 $x7492 $x8 $x1385 $x772 $x4775 $x3991 $x7410 $x45)))))))))))
(assert
 (let (($x213 (= cell_9_9 1)))
 (or $x213 (= cell_9_9 2) (= cell_9_9 3) (= cell_9_9 4) (= cell_9_9 5) (= cell_9_9 6) (= cell_9_9 7) (= cell_9_9 8) (= cell_9_9 9))))
(assert
 (and (distinct cell_1_1 cell_1_2 cell_1_3 cell_1_4 cell_1_5 cell_1_6 cell_1_7 cell_1_8 cell_1_9) true))
(assert
 (and (distinct cell_2_1 cell_2_2 cell_2_3 cell_2_4 cell_2_5 cell_2_6 cell_2_7 cell_2_8 cell_2_9) true))
(assert
 (and (distinct cell_3_1 cell_3_2 cell_3_3 cell_3_4 cell_3_5 cell_3_6 cell_3_7 cell_3_8 cell_3_9) true))
(assert
 (and (distinct cell_4_1 cell_4_2 cell_4_3 cell_4_4 cell_4_5 cell_4_6 cell_4_7 cell_4_8 cell_4_9) true))
(assert
 (and (distinct cell_5_1 cell_5_2 cell_5_3 cell_5_4 cell_5_5 cell_5_6 cell_5_7 cell_5_8 cell_5_9) true))
(assert
 (and (distinct cell_6_1 cell_6_2 cell_6_3 cell_6_4 cell_6_5 cell_6_6 cell_6_7 cell_6_8 cell_6_9) true))
(assert
 (and (distinct cell_7_1 cell_7_2 cell_7_3 cell_7_4 cell_7_5 cell_7_6 cell_7_7 cell_7_8 cell_7_9) true))
(assert
 (and (distinct cell_8_1 cell_8_2 cell_8_3 cell_8_4 cell_8_5 cell_8_6 cell_8_7 cell_8_8 cell_8_9) true))
(assert
 (and (distinct cell_9_1 cell_9_2 cell_9_3 cell_9_4 cell_9_5 cell_9_6 cell_9_7 cell_9_8 cell_9_9) true))
(assert
 (and (distinct cell_1_1 cell_2_1 cell_3_1 cell_4_1 cell_5_1 cell_6_1 cell_7_1 cell_8_1 cell_9_1) true))
(assert
 (and (distinct cell_1_2 cell_2_2 cell_3_2 cell_4_2 cell_5_2 cell_6_2 cell_7_2 cell_8_2 cell_9_2) true))
(assert
 (and (distinct cell_1_3 cell_2_3 cell_3_3 cell_4_3 cell_5_3 cell_6_3 cell_7_3 cell_8_3 cell_9_3) true))
(assert
 (and (distinct cell_1_4 cell_2_4 cell_3_4 cell_4_4 cell_5_4 cell_6_4 cell_7_4 cell_8_4 cell_9_4) true))
(assert
 (and (distinct cell_1_5 cell_2_5 cell_3_5 cell_4_5 cell_5_5 cell_6_5 cell_7_5 cell_8_5 cell_9_5) true))
(assert
 (and (distinct cell_1_6 cell_2_6 cell_3_6 cell_4_6 cell_5_6 cell_6_6 cell_7_6 cell_8_6 cell_9_6) true))
(assert
 (and (distinct cell_1_7 cell_2_7 cell_3_7 cell_4_7 cell_5_7 cell_6_7 cell_7_7 cell_8_7 cell_9_7) true))
(assert
 (and (distinct cell_1_8 cell_2_8 cell_3_8 cell_4_8 cell_5_8 cell_6_8 cell_7_8 cell_8_8 cell_9_8) true))
(assert
 (and (distinct cell_1_9 cell_2_9 cell_3_9 cell_4_9 cell_5_9 cell_6_9 cell_7_9 cell_8_9 cell_9_9) true))
(assert
 (and (distinct cell_1_1 cell_1_2 cell_1_3 cell_2_1 cell_2_2 cell_2_3 cell_3_1 cell_3_2 cell_3_3) true))
(assert
 (and (distinct cell_1_4 cell_1_5 cell_1_6 cell_2_4 cell_2_5 cell_2_6 cell_3_4 cell_3_5 cell_3_6) true))
(assert
 (and (distinct cell_1_7 cell_1_8 cell_1_9 cell_2_7 cell_2_8 cell_2_9 cell_3_7 cell_3_8 cell_3_9) true))
(assert
 (and (distinct cell_4_1 cell_4_2 cell_4_3 cell_5_1 cell_5_2 cell_5_3 cell_6_1 cell_6_2 cell_6_3) true))
(assert
 (and (distinct cell_4_4 cell_4_5 cell_4_6 cell_5_4 cell_5_5 cell_5_6 cell_6_4 cell_6_5 cell_6_6) true))
(assert
 (and (distinct cell_4_7 cell_4_8 cell_4_9 cell_5_7 cell_5_8 cell_5_9 cell_6_7 cell_6_8 cell_6_9) true))
(assert
 (and (distinct cell_7_1 cell_7_2 cell_7_3 cell_8_1 cell_8_2 cell_8_3 cell_9_1 cell_9_2 cell_9_3) true))
(assert
 (and (distinct cell_7_4 cell_7_5 cell_7_6 cell_8_4 cell_8_5 cell_8_6 cell_9_4 cell_9_5 cell_9_6) true))
(assert
 (and (distinct cell_7_7 cell_7_8 cell_7_9 cell_8_7 cell_8_8 cell_8_9 cell_9_7 cell_9_8 cell_9_9) true))
(assert
 (let (($x5566 (and (distinct cell_5_9 cell_6_8 cell_7_7 cell_8_6) true)))
 (let (($x3245 (and (distinct cell_2_9 cell_3_8 cell_4_7 cell_5_6 cell_6_5 cell_7_4 cell_8_3 cell_9_2) true)))
 (let (($x4976 (and (distinct cell_1_8 cell_2_7 cell_3_6 cell_4_5 cell_5_4 cell_6_3 cell_7_2 cell_8_1) true)))
 (let (($x883 (and (distinct cell_1_5 cell_2_4 cell_3_3 cell_4_2) true)))
 (let (($x8431 (and (distinct cell_5_1 cell_6_2 cell_7_3 cell_8_4) true)))
 (let (($x10163 (and (distinct cell_2_1 cell_3_2 cell_4_3 cell_5_4 cell_6_5 cell_7_6 cell_8_7 cell_9_8) true)))
 (let (($x1839 (and (distinct cell_1_2 cell_2_3 cell_3_4 cell_4_5 cell_5_6 cell_6_7 cell_7_8 cell_8_9) true)))
 (let (($x8629 (and (distinct cell_1_5 cell_2_6 cell_3_7 cell_4_8) true)))
 (and $x8629 $x1839 $x10163 $x8431 $x883 $x4976 $x3245 $x5566))))))))))
(assert
 (= cell_2_2 2))
(check-sat)
